logs/drand/feas/drand-05-075-0.sol
# Objective value = 110
x0,1_3 1
x0,1_29 0
x0,1_32 0
x0,1_49 0
x0,1_62 0
x0,2_3 0
x0,2_29 0
x0,2_32 0
x0,2_49 0
x0,2_62 0
x0,3_3 0
x0,3_29 0
x0,3_32 1
x0,3_49 0
x0,3_62 0
x0,4_3 0
x0,4_29 0
x0,4_32 0
x0,4_49 0
x0,4_62 1
x1,2_3 0
x1,2_29 0
x1,2_32 0
x1,2_49 0
x1,2_62 0
x1,3_3 0
x1,3_29 1
x1,3_32 0
x1,3_49 0
x1,3_62 0
x1,4_3 0
x1,4_29 0
x1,4_32 0
x1,4_49 0
x1,4_62 0
x2,3_3 0
x2,3_29 0
x2,3_32 0
x2,3_49 0
x2,3_62 0
x2,4_3 0
x2,4_29 0
x2,4_32 0
x2,4_49 1
x2,4_62 0
x3,4_3 0
x3,4_29 0
x3,4_32 0
x3,4_49 0
x3,4_62 0
p0 0
p1 3
p2 13
p3 32
p4 62
