logs/drand/feas/drand-05-075-0.log

Gurobi 8.1.1 (win64) logging started 11/24/19 12:28:29

Changed value of parameter LogFile to logs/drand/feas/drand-05-075-0.log
   Prev: gurobi.log  Default: 
Changed value of parameter LogToConsole to 0
   Prev: 1  Min: 0  Max: 1  Default: 1
Changed value of parameter TimeLimit to 3600.0
   Prev: 1e+100  Min: 0.0  Max: 1e+100  Default: 1e+100
Optimize a model with 185 rows, 81 columns and 630 nonzeros
Variable types: 0 continuous, 81 integer (75 binary)
Coefficient statistics:
  Matrix range     [1e+00, 2e+02]
  Objective range  [1e+00, 1e+00]
  Bounds range     [1e+00, 1e+00]
  RHS range        [1e+00, 2e+02]
Found heuristic solution: objective 113.0000000
Presolve removed 41 rows and 25 columns
Presolve time: 0.00s
Presolved: 144 rows, 56 columns, 451 nonzeros
Variable types: 0 continuous, 56 integer (50 binary)

Root relaxation: objective 2.440000e+01, 28 iterations, 0.00 seconds

    Nodes    |    Current Node    |     Objective Bounds      |     Work
 Expl Unexpl |  Obj  Depth IntInf | Incumbent    BestBd   Gap | It/Node Time

     0     0   24.40000    0   19  113.00000   24.40000  78.4%     -    0s
     0     0   36.80000    0   14  113.00000   36.80000  67.4%     -    0s
H    0     0                     111.0000000   36.80000  66.8%     -    0s
     0     0   44.86684    0   13  111.00000   44.86684  59.6%     -    0s
     0     0   46.73143    0   13  111.00000   46.73143  57.9%     -    0s
     0     0   49.87033    0   12  111.00000   49.87033  55.1%     -    0s
     0     0   49.87261    0   12  111.00000   49.87261  55.1%     -    0s
     0     0   50.28751    0   12  111.00000   50.28751  54.7%     -    0s
     0     0   50.29358    0   12  111.00000   50.29358  54.7%     -    0s
     0     0   50.38889    0   11  111.00000   50.38889  54.6%     -    0s
     0     0   55.60789    0   13  111.00000   55.60789  49.9%     -    0s
     0     0   55.60789    0   13  111.00000   55.60789  49.9%     -    0s
     0     0   55.60789    0   13  111.00000   55.60789  49.9%     -    0s
     0     0   55.60789    0   13  111.00000   55.60789  49.9%     -    0s
H    0     2                     109.0000000   55.60789  49.0%     -    0s
     0     2   55.60789    0   13  109.00000   55.60789  49.0%     -    0s

Cutting planes:
  Implied bound: 2
  MIR: 8

Explored 39 nodes (457 simplex iterations) in 0.11 seconds
Thread count was 4 (of 4 available processors)

Solution count 3: 109 111 113 

Optimal solution found (tolerance 1.00e-04)
Best objective 1.090000000000e+02, best bound 1.090000000000e+02, gap 0.0000%

Gurobi 8.1.1 (win64) logging started 11/24/19 12:28:29

Changed value of parameter LogFile to logs/drand/feas/drand-05-075-0.log
   Prev: gurobi.log  Default: 
Changed value of parameter LogToConsole to 0
   Prev: 1  Min: 0  Max: 1  Default: 1
Changed value of parameter TimeLimit to 3600.0
   Prev: 1e+100  Min: 0.0  Max: 1e+100  Default: 1e+100
Optimize a model with 125 rows, 55 columns and 420 nonzeros
Variable types: 0 continuous, 55 integer (50 binary)
Coefficient statistics:
  Matrix range     [1e+00, 2e+02]
  Objective range  [1e+00, 1e+00]
  Bounds range     [1e+00, 1e+00]
  RHS range        [1e+00, 2e+02]
Presolve time: 0.00s
Presolved: 125 rows, 55 columns, 420 nonzeros
Variable types: 0 continuous, 55 integer (50 binary)

Root relaxation: objective 2.050000e+01, 50 iterations, 0.00 seconds

    Nodes    |    Current Node    |     Objective Bounds      |     Work
 Expl Unexpl |  Obj  Depth IntInf | Incumbent    BestBd   Gap | It/Node Time

     0     0   20.50000    0   29          -   20.50000      -     -    0s
H    0     0                     136.0000000   20.50000  84.9%     -    0s
H    0     0                     127.0000000   20.50000  83.9%     -    0s
     0     0   34.15913    0   20  127.00000   34.15913  73.1%     -    0s
H    0     0                     116.0000000   34.15913  70.6%     -    0s
     0     0   34.28507    0   20  116.00000   34.28507  70.4%     -    0s
     0     0   36.74748    0   19  116.00000   36.74748  68.3%     -    0s
H    0     0                     110.0000000   36.74748  66.6%     -    0s
     0     0   39.83392    0   19  110.00000   39.83392  63.8%     -    0s
     0     0   39.86872    0   20  110.00000   39.86872  63.8%     -    0s
     0     0   40.61461    0   20  110.00000   40.61461  63.1%     -    0s
     0     0   40.61461    0   20  110.00000   40.61461  63.1%     -    0s
     0     0   42.41010    0   20  110.00000   42.41010  61.4%     -    0s
     0     0   42.55091    0   20  110.00000   42.55091  61.3%     -    0s
     0     0   42.57963    0   20  110.00000   42.57963  61.3%     -    0s
     0     0   45.06686    0   17  110.00000   45.06686  59.0%     -    0s
     0     0   45.06936    0   17  110.00000   45.06936  59.0%     -    0s
     0     0   45.12113    0   18  110.00000   45.12113  59.0%     -    0s
     0     0   46.68398    0   22  110.00000   46.68398  57.6%     -    0s
     0     0   46.68543    0   23  110.00000   46.68543  57.6%     -    0s
     0     0   46.72359    0   21  110.00000   46.72359  57.5%     -    0s
     0     0   47.26232    0   17  110.00000   47.26232  57.0%     -    0s
     0     0   47.26232    0   18  110.00000   47.26232  57.0%     -    0s
     0     0   47.26232    0   18  110.00000   47.26232  57.0%     -    0s
     0     0   47.26232    0   19  110.00000   47.26232  57.0%     -    0s
     0     0   47.26232    0   21  110.00000   47.26232  57.0%     -    0s
     0     0   47.26232    0   17  110.00000   47.26232  57.0%     -    0s
     0     2   47.26232    0   17  110.00000   47.26232  57.0%     -    0s

Cutting planes:
  Gomory: 6
  Cover: 1
  Implied bound: 7
  MIR: 16

Explored 71 nodes (782 simplex iterations) in 0.07 seconds
Thread count was 4 (of 4 available processors)

Solution count 4: 110 116 127 136 

Optimal solution found (tolerance 1.00e-04)
Best objective 1.100000000000e+02, best bound 1.100000000000e+02, gap 0.0000%
